c Sudoku solution
p cnf 729 0
193 0
215 0
248 0
253 0
271 0
292 0
318 0
357 0
414 0
432 0
459 0
466 0
535 0
544 0
552 0
629 0
636 0
673 0
682 0
694 0
734 0
778 0
188 0
822 0
972 0
112 0
861 0
965 0
756 0
725 0
986 0
816 0
954 0
858 0
938 0
668 0
226 0
475 0
767 0
742 0
362 0
563 0
423 0
528 0
498 0
333 0
131 0
324 0
127 0
239 0
155 0
341 0
146 0
287 0
264 0
169 0
174 0
921 0
837 0
997 0
447 0
481 0
511 0
617 0
645 0
651 0
879 0
884 0
783 0
791 0
895 0
719 0
913 0
843 0
949 0
577 0
596 0
589 0
376 0
385 0
399 0
